p cnf 85 287
c p weight 34 -1 0
c p weight -34 1 0
c p weight 36 6.12323399573676603586882014729198302312846062338790031898128063403419218957424163818359375E-17 0
c p weight -36 1 0
c p weight 37 1 0
c p weight -37 1 0
c p weight 38 -1 0
c p weight -38 1 0
c p weight 40 -1 0
c p weight -40 1 0
c p weight 43 -1 0
c p weight -43 1 0
c p weight 46 -1 0
c p weight -46 1 0
c p weight 49 -1 0
c p weight -49 1 0
c p weight 52 -1 0
c p weight -52 1 0
c p weight 55 -1 0
c p weight -55 1 0
c p weight 58 -1 0
c p weight -58 1 0
c p weight 61 -1 0
c p weight -61 1 0
c p weight 64 -1 0
c p weight -64 1 0
c p weight 67 -1 0
c p weight -67 1 0
c p weight 70 -1 0
c p weight -70 1 0
c p weight 73 -1 0
c p weight -73 1 0
c p weight 76 -1 0
c p weight -76 1 0
c p weight 79 -1 0
c p weight -79 1 0
c p weight 82 -1 0
c p weight -82 1 0
c p weight 85 -1 0
c p weight -85 1 0
-31 0
-29 0
-27 0
-25 0
-23 0
-21 0
-19 0
-17 0
-15 0
-13 0
-11 0
-9 0
-7 0
-5 0
-3 0
-1 0
33 31 -32 0
33 -31 32 0
-33 31 32 0
-33 -31 -32 0
-34 31 0
-34 32 0
34 -31 -32 0
35 -31 33 0
-35 31 33 0
-36 33 0
35 -36 -31 0
-35 -36 31 0
35 36 31 -33 0
-35 36 -31 -33 0
-37 33 0
35 -37 31 0
-35 -37 -31 0
35 37 -31 -33 0
-35 37 31 -33 0
-38 35 0
-38 33 0
-38 -31 0
38 -35 31 -33 0
39 35 -33 0
39 -35 33 0
-39 35 33 0
-39 -35 -33 0
-40 35 0
-40 33 0
40 -35 -33 0
41 35 -29 0
41 -35 29 0
-41 35 29 0
-41 -35 -29 0
42 39 -30 0
42 -39 30 0
-42 39 30 0
-42 -39 -30 0
-43 35 0
-43 30 0
-43 29 -39 0
-43 -29 39 0
43 -35 29 39 -30 0
43 -35 -29 -39 -30 0
44 41 -27 0
44 -41 27 0
-44 41 27 0
-44 -41 -27 0
45 30 -28 0
45 -30 28 0
-45 30 28 0
-45 -30 -28 0
-46 41 0
-46 28 0
-46 27 -30 0
-46 -27 30 0
46 -41 27 30 -28 0
46 -41 -27 -30 -28 0
47 44 -25 0
47 -44 25 0
-47 44 25 0
-47 -44 -25 0
48 28 -26 0
48 -28 26 0
-48 28 26 0
-48 -28 -26 0
-49 44 0
-49 26 0
-49 25 -28 0
-49 -25 28 0
49 -44 25 28 -26 0
49 -44 -25 -28 -26 0
50 47 -23 0
50 -47 23 0
-50 47 23 0
-50 -47 -23 0
51 26 -24 0
51 -26 24 0
-51 26 24 0
-51 -26 -24 0
-52 47 0
-52 24 0
-52 23 -26 0
-52 -23 26 0
52 -47 23 26 -24 0
52 -47 -23 -26 -24 0
53 50 -21 0
53 -50 21 0
-53 50 21 0
-53 -50 -21 0
54 24 -22 0
54 -24 22 0
-54 24 22 0
-54 -24 -22 0
-55 50 0
-55 22 0
-55 21 -24 0
-55 -21 24 0
55 -50 21 24 -22 0
55 -50 -21 -24 -22 0
56 53 -19 0
56 -53 19 0
-56 53 19 0
-56 -53 -19 0
57 22 -20 0
57 -22 20 0
-57 22 20 0
-57 -22 -20 0
-58 53 0
-58 20 0
-58 19 -22 0
-58 -19 22 0
58 -53 19 22 -20 0
58 -53 -19 -22 -20 0
59 56 -17 0
59 -56 17 0
-59 56 17 0
-59 -56 -17 0
60 20 -18 0
60 -20 18 0
-60 20 18 0
-60 -20 -18 0
-61 56 0
-61 18 0
-61 17 -20 0
-61 -17 20 0
61 -56 17 20 -18 0
61 -56 -17 -20 -18 0
62 59 -15 0
62 -59 15 0
-62 59 15 0
-62 -59 -15 0
63 18 -16 0
63 -18 16 0
-63 18 16 0
-63 -18 -16 0
-64 59 0
-64 16 0
-64 15 -18 0
-64 -15 18 0
64 -59 15 18 -16 0
64 -59 -15 -18 -16 0
65 62 -13 0
65 -62 13 0
-65 62 13 0
-65 -62 -13 0
66 16 -14 0
66 -16 14 0
-66 16 14 0
-66 -16 -14 0
-67 62 0
-67 14 0
-67 13 -16 0
-67 -13 16 0
67 -62 13 16 -14 0
67 -62 -13 -16 -14 0
68 65 -11 0
68 -65 11 0
-68 65 11 0
-68 -65 -11 0
69 14 -12 0
69 -14 12 0
-69 14 12 0
-69 -14 -12 0
-70 65 0
-70 12 0
-70 11 -14 0
-70 -11 14 0
70 -65 11 14 -12 0
70 -65 -11 -14 -12 0
71 68 -9 0
71 -68 9 0
-71 68 9 0
-71 -68 -9 0
72 12 -10 0
72 -12 10 0
-72 12 10 0
-72 -12 -10 0
-73 68 0
-73 10 0
-73 9 -12 0
-73 -9 12 0
73 -68 9 12 -10 0
73 -68 -9 -12 -10 0
74 71 -7 0
74 -71 7 0
-74 71 7 0
-74 -71 -7 0
75 10 -8 0
75 -10 8 0
-75 10 8 0
-75 -10 -8 0
-76 71 0
-76 8 0
-76 7 -10 0
-76 -7 10 0
76 -71 7 10 -8 0
76 -71 -7 -10 -8 0
77 74 -5 0
77 -74 5 0
-77 74 5 0
-77 -74 -5 0
78 8 -6 0
78 -8 6 0
-78 8 6 0
-78 -8 -6 0
-79 74 0
-79 6 0
-79 5 -8 0
-79 -5 8 0
79 -74 5 8 -6 0
79 -74 -5 -8 -6 0
80 77 -3 0
80 -77 3 0
-80 77 3 0
-80 -77 -3 0
81 6 -4 0
81 -6 4 0
-81 6 4 0
-81 -6 -4 0
-82 77 0
-82 4 0
-82 3 -6 0
-82 -3 6 0
82 -77 3 6 -4 0
82 -77 -3 -6 -4 0
83 80 -1 0
83 -80 1 0
-83 80 1 0
-83 -80 -1 0
84 4 -2 0
84 -4 2 0
-84 4 2 0
-84 -4 -2 0
-85 80 0
-85 2 0
-85 1 -4 0
-85 -1 4 0
85 -80 1 4 -2 0
85 -80 -1 -4 -2 0
-83 0
-80 0
-84 0
-77 0
-81 0
-74 0
-78 0
-71 0
-75 0
-68 0
-72 0
-65 0
-69 0
-62 0
-66 0
-59 0
-63 0
-56 0
-60 0
-53 0
-57 0
-50 0
-54 0
-47 0
-51 0
-44 0
-48 0
-41 0
-45 0
-35 0
-42 0
